(declare-fun _for_it_23 () Int)
(declare-fun _if_cond_77_val () (Array Int Int))
(declare-fun jo_val () (Array Int Int))

(assert (forall ((_for_it_85 Int) (kfdia Int) (kidia Int) (klev Int) (klon Int) (ncldtop Int))
  (=>
    (and
      (<= kidia (+ kfdia (- 1)))
      (<= ncldtop (+ klev (- 1)))
      (<= 0 _for_it_85)
      (<= (+ _for_it_85 1) 4)
      (not (or (exists ((_for_it_86_0 Int)(_for_it_90_1 Int)(_for_it_89_1 Int)(tmp_parfor_0_0 Int)) (and (<= 0 _for_it_90_1) (<= _for_it_90_1 4) (<= 0 tmp_parfor_0_0) (<= tmp_parfor_0_0 4) (= tmp_parfor_0_0 _for_it_90_1) (<= _for_it_89_1 (+ kfdia (- 1))) (<= _for_it_86_0 (+ kfdia (- 1))) (<= (+ kidia (- 1)) _for_it_86_0) (<= (+ kidia (- 1)) _for_it_89_1) (= (+ (select jo_val (- (+ (* (- (+ _for_it_23 1) ncldtop) (- (* kfdia 4) (* kidia 4))) _for_it_86_0 (* _for_it_85 (- kfdia kidia)) 1) kidia)) (- 1)) (+ (select jo_val (- (+ (* (- (+ _for_it_23 1) ncldtop) (- (* kfdia 4) (* kidia 4))) _for_it_89_1 (* (+ _for_it_85 1) (- kfdia kidia)) 1) kidia)) (- 1))) (= (select _if_cond_77_val (- (+ (* (- (+ _for_it_23 1) ncldtop) (- (* kfdia 16) (* kidia 16))) (* 4 _for_it_89_1) _for_it_90_1 (* (+ _for_it_85 1) (- (* kfdia 4) (* kidia 4))) 4) (* kidia 4))) 1) (= _for_it_86_0 _for_it_89_1))) (exists ((_for_it_86_0 Int)(_for_it_86_1 Int)) (and (= _for_it_86_0 _for_it_86_1) (<= _for_it_86_1 (+ kfdia (- 1))) (<= (+ kidia (- 1)) _for_it_86_1) (<= _for_it_86_0 (+ kfdia (- 1))) (<= (+ kidia (- 1)) _for_it_86_0))) (exists ((_for_it_86_0 Int)(_for_it_90_1 Int)(_for_it_89_1 Int)(tmp_parfor_0_0 Int)) (and (= tmp_parfor_0_0 (+ (select jo_val (- (+ (* (- (+ _for_it_23 1) ncldtop) (- (* kfdia 4) (* kidia 4))) _for_it_89_1 (* (+ _for_it_85 1) (- kfdia kidia)) 1) kidia)) (- 1))) (<= 0 _for_it_90_1) (<= _for_it_90_1 4) (<= 0 tmp_parfor_0_0) (<= tmp_parfor_0_0 4) (<= _for_it_89_1 (+ kfdia (- 1))) (<= _for_it_86_0 (+ kfdia (- 1))) (<= (+ kidia (- 1)) _for_it_86_0) (<= (+ kidia (- 1)) _for_it_89_1) (= (select _if_cond_77_val (- (+ (* (- (+ _for_it_23 1) ncldtop) (- (* kfdia 16) (* kidia 16))) (* 4 _for_it_89_1) _for_it_90_1 (* (+ _for_it_85 1) (- (* kfdia 4) (* kidia 4))) 4) (* kidia 4))) 1) (= _for_it_86_0 _for_it_89_1) (= (+ (select jo_val (- (+ (* (- (+ _for_it_23 1) ncldtop) (- (* kfdia 4) (* kidia 4))) _for_it_86_0 (* _for_it_85 (- kfdia kidia)) 1) kidia)) (- 1)) _for_it_90_1))) (exists ((_for_it_86_0 Int)(_for_it_86_1 Int)) (and (= _for_it_86_0 _for_it_86_1) (<= _for_it_86_1 (+ kfdia (- 1))) (<= (+ kidia (- 1)) _for_it_86_1) (<= _for_it_86_0 (+ kfdia (- 1))) (<= (+ kidia (- 1)) _for_it_86_0) (= (+ (select jo_val (- (+ (* (- (+ _for_it_23 1) ncldtop) (- (* kfdia 4) (* kidia 4))) _for_it_86_0 (* _for_it_85 (- kfdia kidia)) 1) kidia)) (- 1)) (+ (select jo_val (- (+ (* (- (+ _for_it_23 1) ncldtop) (- (* kfdia 4) (* kidia 4))) _for_it_86_1 (* (+ _for_it_85 1) (- kfdia kidia)) 1) kidia)) (- 1))))) (exists ((_for_it_86_0 Int)(_for_it_88_1 Int)) (and (= (+ (select jo_val (- (+ (* (- (+ _for_it_23 1) ncldtop) (- (* kfdia 4) (* kidia 4))) _for_it_86_0 (* _for_it_85 (- kfdia kidia)) 1) kidia)) (- 1)) (+ (select jo_val (- (+ (* (- (+ _for_it_23 1) ncldtop) (- (* kfdia 4) (* kidia 4))) _for_it_88_1 (* (+ _for_it_85 1) (- kfdia kidia)) 1) kidia)) (- 1))) (<= _for_it_86_0 (+ kfdia (- 1))) (<= (+ kidia (- 1)) _for_it_86_0) (= _for_it_86_0 _for_it_88_1) (<= _for_it_88_1 (+ kfdia (- 1))) (<= (+ kidia (- 1)) _for_it_88_1))) (exists ((_for_it_86_0 Int)(_for_it_86_1 Int)(tmp_parfor_0_0 Int)) (and (= _for_it_86_0 _for_it_86_1) (<= 0 tmp_parfor_0_0) (<= tmp_parfor_0_0 4) (<= (+ kidia (- 1)) _for_it_86_1) (<= _for_it_86_1 (+ kfdia (- 1))) (<= _for_it_86_0 (+ kfdia (- 1))) (<= (+ kidia (- 1)) _for_it_86_0))) (exists ((_for_it_88_0 Int)(_for_it_86_1 Int)) (and (<= _for_it_88_0 (+ kfdia (- 1))) (<= (+ kidia (- 1)) _for_it_88_0) (<= _for_it_86_1 (+ kfdia (- 1))) (<= (+ kidia (- 1)) _for_it_86_1) (= (- (+ (* (- (+ _for_it_23 1) ncldtop) (- (* kfdia 4) (* kidia 4))) _for_it_88_0 (* _for_it_85 (- kfdia kidia)) 1) kidia) (- (+ (* (- (+ _for_it_23 1) ncldtop) (- (* kfdia 4) (* kidia 4))) _for_it_86_1 (* (+ _for_it_85 1) (- kfdia kidia)) 1) kidia)))) (exists ((_for_it_90_1 Int)(_for_it_89_1 Int)(_for_it_89_0 Int)) (and (<= 0 _for_it_90_1) (<= _for_it_90_1 4) (<= _for_it_89_0 (+ kfdia (- 1))) (<= (+ kidia (- 1)) _for_it_89_0) (<= _for_it_89_1 (+ kfdia (- 1))) (<= (+ kidia (- 1)) _for_it_89_1) (= (select _if_cond_77_val (- (+ (* (- (+ _for_it_23 1) ncldtop) (- (* kfdia 16) (* kidia 16))) (* 4 _for_it_89_1) _for_it_90_1 (* (+ _for_it_85 1) (- (* kfdia 4) (* kidia 4))) 4) (* kidia 4))) 1))) (exists ((_for_it_88_0 Int)(_for_it_88_1 Int)) (and (<= _for_it_88_0 (+ kfdia (- 1))) (<= (+ kidia (- 1)) _for_it_88_0) (= (- (+ (* (- (+ _for_it_23 1) ncldtop) (- (* kfdia 4) (* kidia 4))) _for_it_88_0 (* _for_it_85 (- kfdia kidia)) 1) kidia) (- (+ (* (- (+ _for_it_23 1) ncldtop) (- (* kfdia 4) (* kidia 4))) _for_it_88_1 (* (+ _for_it_85 1) (- kfdia kidia)) 1) kidia)) (<= _for_it_88_1 (+ kfdia (- 1))) (<= (+ kidia (- 1)) _for_it_88_1))) (exists ((_for_it_88_0 Int)(_for_it_89_1 Int)) (and (<= _for_it_88_0 (+ kfdia (- 1))) (<= (+ kidia (- 1)) _for_it_88_0) (<= _for_it_89_1 (+ kfdia (- 1))) (<= (+ kidia (- 1)) _for_it_89_1) (= (- (+ (* (- (+ _for_it_23 1) ncldtop) (- (* kfdia 4) (* kidia 4))) _for_it_88_0 (* _for_it_85 (- kfdia kidia)) 1) kidia) (- (+ (* (- (+ _for_it_23 1) ncldtop) (- (* kfdia 4) (* kidia 4))) _for_it_89_1 (* (+ _for_it_85 1) (- kfdia kidia)) 1) kidia)))) (exists ((_for_it_90_1 Int)(_for_it_88_0 Int)(_for_it_89_1 Int)) (and (<= _for_it_88_0 (+ kfdia (- 1))) (<= (+ kidia (- 1)) _for_it_88_0) (<= 0 _for_it_90_1) (<= _for_it_90_1 4) (<= _for_it_89_1 (+ kfdia (- 1))) (<= (+ kidia (- 1)) _for_it_89_1) (= (- (+ (* (- (+ _for_it_23 1) ncldtop) (- (* kfdia 4) (* kidia 4))) _for_it_88_0 (* _for_it_85 (- kfdia kidia)) 1) kidia) (- (+ (* (- (+ _for_it_23 1) ncldtop) (- (* kfdia 4) (* kidia 4))) _for_it_89_1 (* (+ _for_it_85 1) (- kfdia kidia)) 1) kidia)))) (exists ((_for_it_90_0 Int)(_for_it_86_1 Int)(_for_it_89_0 Int)) (and (<= _for_it_86_1 (+ kfdia (- 1))) (<= (+ kidia (- 1)) _for_it_86_1) (<= _for_it_89_0 (+ kfdia (- 1))) (<= (+ kidia (- 1)) _for_it_89_0) (<= 0 _for_it_90_0) (<= _for_it_90_0 4) (= (- (+ (* (- (+ _for_it_23 1) ncldtop) (- (* kfdia 4) (* kidia 4))) _for_it_89_0 (* _for_it_85 (- kfdia kidia)) 1) kidia) (- (+ (* (- (+ _for_it_23 1) ncldtop) (- (* kfdia 4) (* kidia 4))) _for_it_86_1 (* (+ _for_it_85 1) (- kfdia kidia)) 1) kidia)))) (exists ((_for_it_88_0 Int)(_for_it_86_1 Int)) (and (<= _for_it_88_0 (+ kfdia (- 1))) (<= (+ kidia (- 1)) _for_it_88_0) (= (+ (select jo_val (- (+ (* (- (+ _for_it_23 1) ncldtop) (- (* kfdia 4) (* kidia 4))) _for_it_88_0 (* _for_it_85 (- kfdia kidia)) 1) kidia)) (- 1)) (+ (select jo_val (- (+ (* (- (+ _for_it_23 1) ncldtop) (- (* kfdia 4) (* kidia 4))) _for_it_86_1 (* (+ _for_it_85 1) (- kfdia kidia)) 1) kidia)) (- 1))) (<= _for_it_86_1 (+ kfdia (- 1))) (<= (+ kidia (- 1)) _for_it_86_1) (= _for_it_88_0 _for_it_86_1))) (exists ((_for_it_87_1 Int)(_for_it_90_0 Int)(_for_it_86_1 Int)(_for_it_89_0 Int)) (and (= (- (select jo_val (- (+ (* (- (+ _for_it_23 1) ncldtop) (- (* kfdia 4) (* kidia 4))) _for_it_89_0 (* _for_it_85 (- kfdia kidia)) 1) kidia)) 1) (+ (select jo_val (- (+ (* (- (+ _for_it_23 1) ncldtop) (- (* kfdia 4) (* kidia 4))) _for_it_86_1 (* (+ _for_it_85 1) (- kfdia kidia)) 1) kidia)) (- 1))) (= (- (+ _for_it_89_0 1) 1) _for_it_86_1) (= (- (+ _for_it_90_0 1) 1) _for_it_87_1) (<= _for_it_86_1 (+ kfdia (- 1))) (<= (+ kidia (- 1)) _for_it_86_1) (<= _for_it_89_0 (+ kfdia (- 1))) (<= (+ kidia (- 1)) _for_it_89_0) (<= 0 _for_it_90_0) (<= _for_it_90_0 4) (<= 0 _for_it_87_1) (<= _for_it_87_1 4))) (exists ((_for_it_88_0 Int)(_for_it_88_1 Int)) (and (<= _for_it_88_0 (+ kfdia (- 1))) (<= (+ kidia (- 1)) _for_it_88_0) (= (+ (select jo_val (- (+ (* (- (+ _for_it_23 1) ncldtop) (- (* kfdia 4) (* kidia 4))) _for_it_88_0 (* _for_it_85 (- kfdia kidia)) 1) kidia)) (- 1)) (+ (select jo_val (- (+ (* (- (+ _for_it_23 1) ncldtop) (- (* kfdia 4) (* kidia 4))) _for_it_88_1 (* (+ _for_it_85 1) (- kfdia kidia)) 1) kidia)) (- 1))) (= _for_it_88_0 _for_it_88_1) (<= _for_it_88_1 (+ kfdia (- 1))) (<= (+ kidia (- 1)) _for_it_88_1))) (exists ((_for_it_88_0 Int)(_for_it_89_1 Int)) (and (<= _for_it_88_0 (+ kfdia (- 1))) (<= (+ kidia (- 1)) _for_it_88_0) (= (+ (select jo_val (- (+ (* (- (+ _for_it_23 1) ncldtop) (- (* kfdia 4) (* kidia 4))) _for_it_88_0 (* _for_it_85 (- kfdia kidia)) 1) kidia)) (- 1)) (+ (select jo_val (- (+ (* (- (+ _for_it_23 1) ncldtop) (- (* kfdia 4) (* kidia 4))) _for_it_89_1 (* (+ _for_it_85 1) (- kfdia kidia)) 1) kidia)) (- 1))) (<= _for_it_89_1 (+ kfdia (- 1))) (<= (+ kidia (- 1)) _for_it_89_1) (= _for_it_88_0 _for_it_89_1))) (exists ((_for_it_90_0 Int)(_for_it_88_1 Int)(_for_it_89_0 Int)) (and (= (- (+ (* (- (+ _for_it_23 1) ncldtop) (- (* kfdia 4) (* kidia 4))) _for_it_89_0 (* _for_it_85 (- kfdia kidia)) 1) kidia) (- (+ (* (- (+ _for_it_23 1) ncldtop) (- (* kfdia 4) (* kidia 4))) _for_it_88_1 (* (+ _for_it_85 1) (- kfdia kidia)) 1) kidia)) (<= _for_it_89_0 (+ kfdia (- 1))) (<= (+ kidia (- 1)) _for_it_89_0) (<= 0 _for_it_90_0) (<= _for_it_90_0 4) (<= _for_it_88_1 (+ kfdia (- 1))) (<= (+ kidia (- 1)) _for_it_88_1))) (exists ((_for_it_86_1 Int)(_for_it_89_0 Int)) (and (<= _for_it_86_1 (+ kfdia (- 1))) (<= (+ kidia (- 1)) _for_it_86_1) (<= _for_it_89_0 (+ kfdia (- 1))) (<= (+ kidia (- 1)) _for_it_89_0) (= (- (+ (* (- (+ _for_it_23 1) ncldtop) (- (* kfdia 4) (* kidia 4))) _for_it_89_0 (* _for_it_85 (- kfdia kidia)) 1) kidia) (- (+ (* (- (+ _for_it_23 1) ncldtop) (- (* kfdia 4) (* kidia 4))) _for_it_86_1 (* (+ _for_it_85 1) (- kfdia kidia)) 1) kidia)))) (exists ((_for_it_88_1 Int)(_for_it_89_0 Int)) (and (= (- (+ (* (- (+ _for_it_23 1) ncldtop) (- (* kfdia 4) (* kidia 4))) _for_it_89_0 (* _for_it_85 (- kfdia kidia)) 1) kidia) (- (+ (* (- (+ _for_it_23 1) ncldtop) (- (* kfdia 4) (* kidia 4))) _for_it_88_1 (* (+ _for_it_85 1) (- kfdia kidia)) 1) kidia)) (<= _for_it_89_0 (+ kfdia (- 1))) (<= (+ kidia (- 1)) _for_it_89_0) (<= _for_it_88_1 (+ kfdia (- 1))) (<= (+ kidia (- 1)) _for_it_88_1))) (exists ((_for_it_89_1 Int)(_for_it_89_0 Int)) (and (<= _for_it_89_0 (+ kfdia (- 1))) (<= (+ kidia (- 1)) _for_it_89_0) (<= _for_it_89_1 (+ kfdia (- 1))) (<= (+ kidia (- 1)) _for_it_89_1) (= (- (+ (* (- (+ _for_it_23 1) ncldtop) (- (* kfdia 4) (* kidia 4))) _for_it_89_0 (* _for_it_85 (- kfdia kidia)) 1) kidia) (- (+ (* (- (+ _for_it_23 1) ncldtop) (- (* kfdia 4) (* kidia 4))) _for_it_89_1 (* (+ _for_it_85 1) (- kfdia kidia)) 1) kidia)))) (exists ((_for_it_89_1 Int)(_for_it_89_0 Int)(_for_it_90_0 Int)) (and (<= _for_it_89_0 (+ kfdia (- 1))) (<= (+ kidia (- 1)) _for_it_89_0) (<= _for_it_89_1 (+ kfdia (- 1))) (<= (+ kidia (- 1)) _for_it_89_1) (= (- (+ (* (- (+ _for_it_23 1) ncldtop) (- (* kfdia 4) (* kidia 4))) _for_it_89_0 (* _for_it_85 (- kfdia kidia)) 1) kidia) (- (+ (* (- (+ _for_it_23 1) ncldtop) (- (* kfdia 4) (* kidia 4))) _for_it_89_1 (* (+ _for_it_85 1) (- kfdia kidia)) 1) kidia)) (<= 0 _for_it_90_0) (<= _for_it_90_0 4))) (exists ((_for_it_90_1 Int)(_for_it_89_1 Int)(_for_it_89_0 Int)) (and (<= 0 _for_it_90_1) (<= _for_it_90_1 4) (<= _for_it_89_0 (+ kfdia (- 1))) (<= (+ kidia (- 1)) _for_it_89_0) (<= _for_it_89_1 (+ kfdia (- 1))) (<= (+ kidia (- 1)) _for_it_89_1) (= (- (+ (* (- (+ _for_it_23 1) ncldtop) (- (* kfdia 4) (* kidia 4))) _for_it_89_0 (* _for_it_85 (- kfdia kidia)) 1) kidia) (- (+ (* (- (+ _for_it_23 1) ncldtop) (- (* kfdia 4) (* kidia 4))) _for_it_89_1 (* (+ _for_it_85 1) (- kfdia kidia)) 1) kidia)))) (exists ((_for_it_88_1 Int)(_for_it_89_0 Int)) (and (<= _for_it_89_0 (+ kfdia (- 1))) (<= (+ kidia (- 1)) _for_it_89_0) (= _for_it_89_0 _for_it_88_1) (= (+ (select jo_val (- (+ (* (- (+ _for_it_23 1) ncldtop) (- (* kfdia 4) (* kidia 4))) _for_it_89_0 (* _for_it_85 (- kfdia kidia)) 1) kidia)) (- 1)) (+ (select jo_val (- (+ (* (- (+ _for_it_23 1) ncldtop) (- (* kfdia 4) (* kidia 4))) _for_it_88_1 (* (+ _for_it_85 1) (- kfdia kidia)) 1) kidia)) (- 1))) (<= _for_it_88_1 (+ kfdia (- 1))) (<= (+ kidia (- 1)) _for_it_88_1))) (exists ((_for_it_90_1 Int)(_for_it_89_1 Int)(_for_it_89_0 Int)(_for_it_90_0 Int)) (and (<= 0 _for_it_90_1) (<= _for_it_90_1 4) (<= _for_it_89_0 (+ kfdia (- 1))) (<= (+ kidia (- 1)) _for_it_89_0) (<= _for_it_89_1 (+ kfdia (- 1))) (<= (+ kidia (- 1)) _for_it_89_1) (= (- (+ (* (- (+ _for_it_23 1) ncldtop) (- (* kfdia 16) (* kidia 16))) (* 4 _for_it_89_0) _for_it_90_0 (* _for_it_85 (- (* kfdia 4) (* kidia 4))) 4) (* kidia 4)) (- (+ (* (- (+ _for_it_23 1) ncldtop) (- (* kfdia 16) (* kidia 16))) (* 4 _for_it_89_1) _for_it_90_1 (* (+ _for_it_85 1) (- (* kfdia 4) (* kidia 4))) 4) (* kidia 4))) (<= 0 _for_it_90_0) (<= _for_it_90_0 4))) (exists ((_for_it_86_0 Int)(tmp_parfor_0_1 Int)(_for_it_86_1 Int)) (and (<= 0 tmp_parfor_0_1) (<= tmp_parfor_0_1 4) (= _for_it_86_0 _for_it_86_1) (<= _for_it_86_1 (+ kfdia (- 1))) (<= (+ kidia (- 1)) _for_it_86_1) (<= _for_it_86_0 (+ kfdia (- 1))) (<= (+ kidia (- 1)) _for_it_86_0))) (exists ((_for_it_87_1 Int)(_for_it_90_0 Int)(_for_it_86_1 Int)(_for_it_89_0 Int)) (and (= (+ (select jo_val (- (+ (* (- (+ _for_it_23 1) ncldtop) (- (* kfdia 4) (* kidia 4))) _for_it_89_0 (* _for_it_85 (- kfdia kidia)) 1) kidia)) (- 1)) (+ (select jo_val (- (+ (* (- (+ _for_it_23 1) ncldtop) (- (* kfdia 4) (* kidia 4))) _for_it_86_1 (* (+ _for_it_85 1) (- kfdia kidia)) 1) kidia)) (- 1))) (<= _for_it_86_1 (+ kfdia (- 1))) (<= (+ kidia (- 1)) _for_it_86_1) (<= _for_it_89_0 (+ kfdia (- 1))) (<= (+ kidia (- 1)) _for_it_89_0) (= _for_it_89_0 _for_it_86_1) (= _for_it_90_0 _for_it_87_1) (<= 0 _for_it_90_0) (<= _for_it_90_0 4) (<= 0 _for_it_87_1) (<= _for_it_87_1 4) (= (select _if_cond_77_val (- (+ (* (- (+ _for_it_23 1) ncldtop) (- (* kfdia 16) (* kidia 16))) (* 4 _for_it_89_0) _for_it_90_0 (* _for_it_85 (- (* kfdia 4) (* kidia 4))) 4) (* kidia 4))) 1))) (exists ((tmp_parfor_0_1 Int)(_for_it_90_0 Int)(_for_it_86_1 Int)(_for_it_89_0 Int)) (and (<= 0 tmp_parfor_0_1) (<= tmp_parfor_0_1 4) (<= _for_it_86_1 (+ kfdia (- 1))) (<= (+ kidia (- 1)) _for_it_86_1) (<= _for_it_89_0 (+ kfdia (- 1))) (<= (+ kidia (- 1)) _for_it_89_0) (= _for_it_89_0 _for_it_86_1) (= _for_it_90_0 tmp_parfor_0_1) (<= 0 _for_it_90_0) (<= _for_it_90_0 4) (= (+ (select jo_val (- (+ (* (- (+ _for_it_23 1) ncldtop) (- (* kfdia 4) (* kidia 4))) _for_it_89_0 (* _for_it_85 (- kfdia kidia)) 1) kidia)) (- 1)) (+ (select jo_val (- (+ (* (- (+ _for_it_23 1) ncldtop) (- (* kfdia 4) (* kidia 4))) _for_it_86_1 (* (+ _for_it_85 1) (- kfdia kidia)) 1) kidia)) (- 1))) (= (select _if_cond_77_val (- (+ (* (- (+ _for_it_23 1) ncldtop) (- (* kfdia 16) (* kidia 16))) (* 4 _for_it_89_0) _for_it_90_0 (* _for_it_85 (- (* kfdia 4) (* kidia 4))) 4) (* kidia 4))) 1))) (exists ((_for_it_86_0 Int)(tmp_parfor_0_1 Int)(_for_it_86_1 Int)(tmp_parfor_0_0 Int)) (and (<= 0 tmp_parfor_0_1) (<= tmp_parfor_0_1 4) (= _for_it_86_0 _for_it_86_1) (<= 0 tmp_parfor_0_0) (<= tmp_parfor_0_0 4) (<= (+ kidia (- 1)) _for_it_86_1) (<= _for_it_86_1 (+ kfdia (- 1))) (<= _for_it_86_0 (+ kfdia (- 1))) (<= (+ kidia (- 1)) _for_it_86_0))) (exists ((_for_it_86_0 Int)(_for_it_86_1 Int)) (and (= (- (+ (* (- (+ _for_it_23 1) ncldtop) (- (* kfdia 4) (* kidia 4))) _for_it_86_0 (* _for_it_85 (- kfdia kidia)) 1) kidia) (- (+ (* (- (+ _for_it_23 1) ncldtop) (- (* kfdia 4) (* kidia 4))) _for_it_86_1 (* (+ _for_it_85 1) (- kfdia kidia)) 1) kidia)) (<= _for_it_86_1 (+ kfdia (- 1))) (<= (+ kidia (- 1)) _for_it_86_1) (<= _for_it_86_0 (+ kfdia (- 1))) (<= (+ kidia (- 1)) _for_it_86_0))) (exists ((_for_it_87_1 Int)(_for_it_90_0 Int)(_for_it_86_1 Int)(_for_it_89_0 Int)) (and (<= _for_it_86_1 (+ kfdia (- 1))) (<= (+ kidia (- 1)) _for_it_86_1) (= _for_it_90_0 (+ (select jo_val (- (+ (* (- (+ _for_it_23 1) ncldtop) (- (* kfdia 4) (* kidia 4))) _for_it_86_1 (* (+ _for_it_85 1) (- kfdia kidia)) 1) kidia)) (- 1))) (<= _for_it_89_0 (+ kfdia (- 1))) (<= (+ kidia (- 1)) _for_it_89_0) (= (+ (select jo_val (- (+ (* (- (+ _for_it_23 1) ncldtop) (- (* kfdia 4) (* kidia 4))) _for_it_89_0 (* _for_it_85 (- kfdia kidia)) 1) kidia)) (- 1)) _for_it_87_1) (= _for_it_89_0 _for_it_86_1) (<= 0 _for_it_90_0) (<= _for_it_90_0 4) (<= 0 _for_it_87_1) (<= _for_it_87_1 4) (= (select _if_cond_77_val (- (+ (* (- (+ _for_it_23 1) ncldtop) (- (* kfdia 16) (* kidia 16))) (* 4 _for_it_89_0) _for_it_90_0 (* _for_it_85 (- (* kfdia 4) (* kidia 4))) 4) (* kidia 4))) 1))) (exists ((_for_it_86_0 Int)(_for_it_88_1 Int)) (and (<= _for_it_86_0 (+ kfdia (- 1))) (<= (+ kidia (- 1)) _for_it_86_0) (= (- (+ (* (- (+ _for_it_23 1) ncldtop) (- (* kfdia 4) (* kidia 4))) _for_it_86_0 (* _for_it_85 (- kfdia kidia)) 1) kidia) (- (+ (* (- (+ _for_it_23 1) ncldtop) (- (* kfdia 4) (* kidia 4))) _for_it_88_1 (* (+ _for_it_85 1) (- kfdia kidia)) 1) kidia)) (<= _for_it_88_1 (+ kfdia (- 1))) (<= (+ kidia (- 1)) _for_it_88_1))) (exists ((tmp_parfor_0_1 Int)(_for_it_90_0 Int)(_for_it_86_1 Int)(_for_it_89_0 Int)) (and (<= 0 tmp_parfor_0_1) (<= tmp_parfor_0_1 4) (<= _for_it_86_1 (+ kfdia (- 1))) (<= (+ kidia (- 1)) _for_it_86_1) (= _for_it_90_0 (+ (select jo_val (- (+ (* (- (+ _for_it_23 1) ncldtop) (- (* kfdia 4) (* kidia 4))) _for_it_86_1 (* (+ _for_it_85 1) (- kfdia kidia)) 1) kidia)) (- 1))) (<= _for_it_89_0 (+ kfdia (- 1))) (<= (+ kidia (- 1)) _for_it_89_0) (= _for_it_89_0 _for_it_86_1) (= (+ (select jo_val (- (+ (* (- (+ _for_it_23 1) ncldtop) (- (* kfdia 4) (* kidia 4))) _for_it_89_0 (* _for_it_85 (- kfdia kidia)) 1) kidia)) (- 1)) tmp_parfor_0_1) (<= 0 _for_it_90_0) (<= _for_it_90_0 4) (= (select _if_cond_77_val (- (+ (* (- (+ _for_it_23 1) ncldtop) (- (* kfdia 16) (* kidia 16))) (* 4 _for_it_89_0) _for_it_90_0 (* _for_it_85 (- (* kfdia 4) (* kidia 4))) 4) (* kidia 4))) 1))) (exists ((_for_it_86_0 Int)(_for_it_89_1 Int)) (and (<= _for_it_86_0 (+ kfdia (- 1))) (<= (+ kidia (- 1)) _for_it_89_1) (<= (+ kidia (- 1)) _for_it_86_0) (<= _for_it_89_1 (+ kfdia (- 1))) (= (- (+ (* (- (+ _for_it_23 1) ncldtop) (- (* kfdia 4) (* kidia 4))) _for_it_86_0 (* _for_it_85 (- kfdia kidia)) 1) kidia) (- (+ (* (- (+ _for_it_23 1) ncldtop) (- (* kfdia 4) (* kidia 4))) _for_it_89_1 (* (+ _for_it_85 1) (- kfdia kidia)) 1) kidia)))) (exists ((_for_it_88_0 Int)(_for_it_88_1 Int)) (and (<= _for_it_88_0 (+ kfdia (- 1))) (<= (+ kidia (- 1)) _for_it_88_0) (= _for_it_88_0 _for_it_88_1) (<= _for_it_88_1 (+ kfdia (- 1))) (<= (+ kidia (- 1)) _for_it_88_1))) (exists ((_for_it_86_0 Int)(_for_it_90_1 Int)(_for_it_89_1 Int)) (and (<= 0 _for_it_90_1) (<= _for_it_90_1 4) (<= _for_it_86_0 (+ kfdia (- 1))) (<= (+ kidia (- 1)) _for_it_86_0) (<= (+ kidia (- 1)) _for_it_89_1) (<= _for_it_89_1 (+ kfdia (- 1))) (= (- (+ (* (- (+ _for_it_23 1) ncldtop) (- (* kfdia 4) (* kidia 4))) _for_it_86_0 (* _for_it_85 (- kfdia kidia)) 1) kidia) (- (+ (* (- (+ _for_it_23 1) ncldtop) (- (* kfdia 4) (* kidia 4))) _for_it_89_1 (* (+ _for_it_85 1) (- kfdia kidia)) 1) kidia)))) (exists ((_for_it_86_0 Int)(_for_it_87_1 Int)(_for_it_87_0 Int)(_for_it_86_1 Int)) (and (= _for_it_86_0 _for_it_86_1) (= _for_it_87_0 _for_it_87_1) (<= _for_it_86_1 (+ kfdia (- 1))) (<= (+ kidia (- 1)) _for_it_86_1) (<= _for_it_86_0 (+ kfdia (- 1))) (<= (+ kidia (- 1)) _for_it_86_0) (<= 0 _for_it_87_0) (<= _for_it_87_0 4) (<= 0 _for_it_87_1) (<= _for_it_87_1 4) (= (+ (select jo_val (- (+ (* (- (+ _for_it_23 1) ncldtop) (- (* kfdia 4) (* kidia 4))) _for_it_86_0 (* _for_it_85 (- kfdia kidia)) 1) kidia)) (- 1)) (+ (select jo_val (- (+ (* (- (+ _for_it_23 1) ncldtop) (- (* kfdia 4) (* kidia 4))) _for_it_86_1 (* (+ _for_it_85 1) (- kfdia kidia)) 1) kidia)) (- 1))))) (exists ((_for_it_86_0 Int)(_for_it_90_1 Int)(_for_it_89_1 Int)(_for_it_87_0 Int)) (and (<= 0 _for_it_90_1) (<= _for_it_90_1 4) (= (+ (select jo_val (- (+ (* (- (+ _for_it_23 1) ncldtop) (- (* kfdia 4) (* kidia 4))) _for_it_86_0 (* _for_it_85 (- kfdia kidia)) 1) kidia)) (- 1)) (- (select jo_val (- (+ (* (- (+ _for_it_23 1) ncldtop) (- (* kfdia 4) (* kidia 4))) _for_it_89_1 (* (+ _for_it_85 1) (- kfdia kidia)) 1) kidia)) 1)) (= _for_it_86_0 (- (+ _for_it_89_1 1) 1)) (= _for_it_87_0 (- (+ _for_it_90_1 1) 1)) (<= _for_it_89_1 (+ kfdia (- 1))) (<= _for_it_86_0 (+ kfdia (- 1))) (<= (+ kidia (- 1)) _for_it_86_0) (<= (+ kidia (- 1)) _for_it_89_1) (<= 0 _for_it_87_0) (<= _for_it_87_0 4))) (exists ((_for_it_89_1 Int)(_for_it_89_0 Int)(_for_it_90_0 Int)) (and (<= _for_it_89_0 (+ kfdia (- 1))) (<= (+ kidia (- 1)) _for_it_89_0) (<= _for_it_89_1 (+ kfdia (- 1))) (<= (+ kidia (- 1)) _for_it_89_1) (<= 0 _for_it_90_0) (<= _for_it_90_0 4) (= (select _if_cond_77_val (- (+ (* (- (+ _for_it_23 1) ncldtop) (- (* kfdia 16) (* kidia 16))) (* 4 _for_it_89_0) _for_it_90_0 (* _for_it_85 (- (* kfdia 4) (* kidia 4))) 4) (* kidia 4))) 1))) (exists ((_for_it_90_1 Int)(_for_it_89_1 Int)(_for_it_89_0 Int)(_for_it_90_0 Int)) (and (<= 0 _for_it_90_1) (<= _for_it_90_1 4) (<= _for_it_89_0 (+ kfdia (- 1))) (= _for_it_90_0 (+ (select jo_val (- (+ (* (- (+ _for_it_23 1) ncldtop) (- (* kfdia 4) (* kidia 4))) _for_it_89_1 (* (+ _for_it_85 1) (- kfdia kidia)) 1) kidia)) (- 1))) (= (+ (select jo_val (- (+ (* (- (+ _for_it_23 1) ncldtop) (- (* kfdia 4) (* kidia 4))) _for_it_89_0 (* _for_it_85 (- kfdia kidia)) 1) kidia)) (- 1)) _for_it_90_1) (<= (+ kidia (- 1)) _for_it_89_0) (<= _for_it_89_1 (+ kfdia (- 1))) (<= (+ kidia (- 1)) _for_it_89_1) (= (select _if_cond_77_val (- (+ (* (- (+ _for_it_23 1) ncldtop) (- (* kfdia 16) (* kidia 16))) (* 4 _for_it_89_1) _for_it_90_1 (* (+ _for_it_85 1) (- (* kfdia 4) (* kidia 4))) 4) (* kidia 4))) 1) (= _for_it_89_0 _for_it_89_1) (<= 0 _for_it_90_0) (<= _for_it_90_0 4) (= (select _if_cond_77_val (- (+ (* (- (+ _for_it_23 1) ncldtop) (- (* kfdia 16) (* kidia 16))) (* 4 _for_it_89_0) _for_it_90_0 (* _for_it_85 (- (* kfdia 4) (* kidia 4))) 4) (* kidia 4))) 1))) (exists ((_for_it_86_0 Int)(_for_it_90_1 Int)(_for_it_89_1 Int)(_for_it_87_0 Int)) (and (<= 0 _for_it_90_1) (<= _for_it_90_1 4) (<= _for_it_89_1 (+ kfdia (- 1))) (<= (+ kidia (- 1)) _for_it_86_0) (<= _for_it_86_0 (+ kfdia (- 1))) (<= (+ kidia (- 1)) _for_it_89_1) (= (+ (select jo_val (- (+ (* (- (+ _for_it_23 1) ncldtop) (- (* kfdia 4) (* kidia 4))) _for_it_86_0 (* _for_it_85 (- kfdia kidia)) 1) kidia)) (- 1)) (+ (select jo_val (- (+ (* (- (+ _for_it_23 1) ncldtop) (- (* kfdia 4) (* kidia 4))) _for_it_89_1 (* (+ _for_it_85 1) (- kfdia kidia)) 1) kidia)) (- 1))) (= (select _if_cond_77_val (- (+ (* (- (+ _for_it_23 1) ncldtop) (- (* kfdia 16) (* kidia 16))) (* 4 _for_it_89_1) _for_it_90_1 (* (+ _for_it_85 1) (- (* kfdia 4) (* kidia 4))) 4) (* kidia 4))) 1) (<= 0 _for_it_87_0) (<= _for_it_87_0 4) (= _for_it_87_0 _for_it_90_1) (= _for_it_86_0 _for_it_89_1))) (exists ((_for_it_86_0 Int)(_for_it_90_1 Int)(_for_it_89_1 Int)(_for_it_87_0 Int)) (and (<= 0 _for_it_90_1) (<= _for_it_90_1 4) (<= _for_it_89_1 (+ kfdia (- 1))) (<= _for_it_86_0 (+ kfdia (- 1))) (<= (+ kidia (- 1)) _for_it_86_0) (<= (+ kidia (- 1)) _for_it_89_1) (= (select _if_cond_77_val (- (+ (* (- (+ _for_it_23 1) ncldtop) (- (* kfdia 16) (* kidia 16))) (* 4 _for_it_89_1) _for_it_90_1 (* (+ _for_it_85 1) (- (* kfdia 4) (* kidia 4))) 4) (* kidia 4))) 1) (<= 0 _for_it_87_0) (= _for_it_87_0 (+ (select jo_val (- (+ (* (- (+ _for_it_23 1) ncldtop) (- (* kfdia 4) (* kidia 4))) _for_it_89_1 (* (+ _for_it_85 1) (- kfdia kidia)) 1) kidia)) (- 1))) (= _for_it_86_0 _for_it_89_1) (<= _for_it_87_0 4) (= (+ (select jo_val (- (+ (* (- (+ _for_it_23 1) ncldtop) (- (* kfdia 4) (* kidia 4))) _for_it_86_0 (* _for_it_85 (- kfdia kidia)) 1) kidia)) (- 1)) _for_it_90_1))) (exists ((_for_it_89_1 Int)(_for_it_89_0 Int)) (and (<= _for_it_89_0 (+ kfdia (- 1))) (<= (+ kidia (- 1)) _for_it_89_0) (<= _for_it_89_1 (+ kfdia (- 1))) (<= (+ kidia (- 1)) _for_it_89_1))) (exists ((_for_it_90_1 Int)(_for_it_89_1 Int)(_for_it_89_0 Int)(_for_it_90_0 Int)) (and (<= 0 _for_it_90_1) (<= _for_it_90_1 4) (= _for_it_90_0 _for_it_90_1) (<= _for_it_89_0 (+ kfdia (- 1))) (<= (+ kidia (- 1)) _for_it_89_0) (<= _for_it_89_1 (+ kfdia (- 1))) (<= (+ kidia (- 1)) _for_it_89_1) (= (+ (select jo_val (- (+ (* (- (+ _for_it_23 1) ncldtop) (- (* kfdia 4) (* kidia 4))) _for_it_89_0 (* _for_it_85 (- kfdia kidia)) 1) kidia)) (- 1)) (+ (select jo_val (- (+ (* (- (+ _for_it_23 1) ncldtop) (- (* kfdia 4) (* kidia 4))) _for_it_89_1 (* (+ _for_it_85 1) (- kfdia kidia)) 1) kidia)) (- 1))) (= (select _if_cond_77_val (- (+ (* (- (+ _for_it_23 1) ncldtop) (- (* kfdia 16) (* kidia 16))) (* 4 _for_it_89_1) _for_it_90_1 (* (+ _for_it_85 1) (- (* kfdia 4) (* kidia 4))) 4) (* kidia 4))) 1) (= _for_it_89_0 _for_it_89_1) (<= 0 _for_it_90_0) (<= _for_it_90_0 4) (= (select _if_cond_77_val (- (+ (* (- (+ _for_it_23 1) ncldtop) (- (* kfdia 16) (* kidia 16))) (* 4 _for_it_89_0) _for_it_90_0 (* _for_it_85 (- (* kfdia 4) (* kidia 4))) 4) (* kidia 4))) 1)))))
    )
    false
  )
))

(check-sat)